SDVRP instances/custom_instances/p01_2_split0.vrp
NAME:p01_2_split
BEST_KNOWN: 0
COMMENT: 0
DIMENSION: 197
CAPACITY: 160
EDGE_WEIGHT_FORMAT: FUNCTION
EDGE_WEIGHT_TYPE: EXACT_2D
NODE_COORD_SECTION
1 0.00000 0.00000
2 8 -38
3 8 -38
4 8 -38
5 8 -38
6 8 -38
7 10 -41
8 10 -41
9 10 -41
10 10 -41
11 10 -41
12 -39 45
13 -39 45
14 -39 45
15 28 -6
16 28 -6
17 28 -6
18 28 -6
19 -26 20
20 -26 20
21 -26 20
22 -26 20
23 -39 -36
24 -39 -36
25 10 27
26 10 27
27 10 27
28 10 27
29 14 16
30 14 16
31 14 16
32 14 16
33 12 20
34 12 20
35 12 20
36 12 20
37 8 -19
38 8 -19
39 8 -19
40 8 -19
41 8 -19
42 8 -19
43 40 -47
44 40 -47
45 40 -47
46 40 -47
47 -42 -36
48 -42 -36
49 -42 -36
50 -42 -36
51 24 17
52 24 17
53 24 17
54 -2 -23
55 -2 -23
56 -2 -23
57 -16 -2
58 -16 -2
59 -16 -2
60 40 -43
61 40 -43
62 40 -43
63 14 28
64 14 28
65 14 28
66 19 -25
67 19 -25
68 19 -25
69 19 -25
70 18 -24
71 18 -24
72 18 -24
73 -47 -2
74 -47 -2
75 -47 -2
76 19 15
77 19 15
78 19 15
79 14 1
80 14 1
81 14 1
82 -40 40
83 -40 40
84 -40 40
85 4 -3
86 4 -3
87 4 -3
88 4 -3
89 4 -3
90 4 -3
91 23 35
92 23 35
93 23 35
94 -46 -12
95 -46 -12
96 -46 -12
97 26 -23
98 26 -23
99 26 -23
100 26 -23
101 41 -7
102 41 -7
103 41 -7
104 41 -7
105 41 -7
106 -8 -45
107 -8 -45
108 -8 -45
109 13 -4
110 13 -4
111 13 -4
112 10 23
113 10 23
114 10 23
115 10 23
116 10 23
117 2 -43
118 2 -43
119 2 -43
120 2 -43
121 2 -43
122 -50 -24
123 -50 -24
124 -50 -24
125 -50 -24
126 -50 -24
127 -50 -24
128 33 34
129 33 34
130 33 34
131 35 -27
132 35 -27
133 35 -27
134 35 -27
135 45 44
136 45 44
137 45 44
138 45 44
139 45 44
140 -35 -18
141 -35 -18
142 -35 -18
143 -47 -17
144 -47 -17
145 -47 -17
146 -47 -17
147 3 19
148 3 19
149 3 19
150 3 19
151 3 19
152 -18 39
153 -18 39
154 -18 39
155 -18 39
156 -18 39
157 40 -26
158 40 -26
159 18 -11
160 18 -11
161 18 -11
162 -4 13
163 -4 13
164 -4 13
165 -4 13
166 -4 13
167 -14 50
168 -14 50
169 -14 50
170 -14 50
171 -14 50
172 -6 37
173 -6 37
174 -6 37
175 3 -39
176 3 -39
177 3 -39
178 3 -39
179 3 -39
180 -17 32
181 -17 32
182 -17 32
183 -17 32
184 -17 32
185 0 43
186 0 43
187 0 43
188 0 43
189 -20 0
190 -20 0
191 -20 0
192 -20 0
193 -20 0
194 4 24
195 4 24
196 4 24
197 4 24
DEMAND_SECTION
1 0
2 16
3 8
4 2
5 2
6 1
7 32
8 8
9 2
10 2
11 1
12 32
13 32
14 16
15 16
16 8
17 2
18 1
19 32
20 2
21 2
22 2
23 32
24 8
25 32
26 16
27 2
28 1
29 16
30 2
31 2
32 2
33 32
34 16
35 2
36 2
37 32
38 32
39 8
40 2
41 2
42 2
43 16
44 2
45 2
46 1
47 16
48 8
49 2
50 1
51 32
52 2
53 1
54 16
55 8
56 2
57 32
58 32
59 1
60 32
61 2
62 2
63 32
64 32
65 1
66 32
67 8
68 2
69 1
70 32
71 2
72 2
73 16
74 8
75 1
76 32
77 16
78 2
79 32
80 16
81 1
82 32
83 8
84 2
85 32
86 16
87 8
88 2
89 2
90 1
91 32
92 32
93 2
94 32
95 32
96 1
97 32
98 16
99 8
100 1
101 32
102 32
103 2
104 2
105 1
106 32
107 8
108 2
109 32
110 32
111 8
112 32
113 32
114 8
115 2
116 2
117 32
118 2
119 2
120 2
121 1
122 32
123 16
124 2
125 2
126 2
127 1
128 32
129 8
130 1
131 32
132 8
133 2
134 1
135 32
136 8
137 2
138 2
139 1
140 16
141 2
142 2
143 32
144 32
145 8
146 2
147 32
148 32
149 2
150 2
151 2
152 32
153 2
154 2
155 2
156 1
157 32
158 1
159 32
160 16
161 1
162 16
163 8
164 2
165 2
166 2
167 32
168 32
169 8
170 2
171 1
172 32
173 32
174 8
175 32
176 16
177 8
178 2
179 1
180 32
181 16
182 8
183 2
184 2
185 32
186 2
187 2
188 2
189 32
190 16
191 2
192 2
193 1
194 16
195 8
196 2
197 1
DEPOT_SECTION
1
-1
EOF