SDVRP instances/custom_instances/p01_2_split0.sol
196 -11 13 12 81 82 83 19 21 20 18 -14 16 17 15 104 103 102 101 100 78 79 80 -23 22 46 48 49 47 122 124 123 125 121 126 142 -34 33 35 32 31 28 29 30 51 50 52 77 75 76 -41 40 39 36 37 38 7 10 6 8 9 5 3 4 2 1 54 -44 42 43 45 60 61 59 157 156 132 130 133 131 97 98 99 -55 53 105 106 107 116 119 120 117 118 178 175 176 174 177 -58 57 56 190 189 188 192 191 -62 63 64 27 26 24 25 194 195 193 196 -69 70 71 67 65 66 68 96 158 159 160 -73 72 74 95 94 93 144 145 143 139 141 140 -88 85 89 84 87 86 108 109 110 -91 90 92 135 134 137 138 136 128 129 127 -111 114 112 113 115 148 146 147 150 149 -161 164 162 171 172 173 179 181 180 183 182 -163 165 154 153 152 151 155 166 168 169 167 170 184 185 187 186 0 





OBJ=
1423.440
BEST_KNOWN=
0.000